p cnf 735 1825
1 0
2 0
3 0
4 0
5 0
6 0
7 0
8 0
9 0
10 0
11 0
12 0
13 0
14 0
15 0
16 0
17 0
18 0
19 0
20 0
21 0
22 0
23 0
24 0
25 0
-26 0
-27 0
-28 0
-29 0
-30 0
-31 0
-32 0
-33 0
-34 0
-35 0
-36 0
-37 0
-38 0
-39 0
-40 0
-41 0
-42 0
-43 0
-44 0
-45 0
-46 0
-47 0
-48 0
-49 0
-50 0
51 -52 0
-53 51 0
-54 51 0
-55 51 0
51 -56 0
51 -57 0
51 -58 0
51 -59 0
51 -60 0
-61 51 0
-62 51 0
63 0
1 -51 0
-1 51 0
-53 64 0
-54 64 0
-55 64 0
-56 64 0
-57 64 0
-58 64 0
-59 64 0
-60 64 0
-61 64 0
-62 64 0
65 0
66 -64 0
-66 64 0
-54 67 0
-55 67 0
-56 67 0
-57 67 0
-58 67 0
-59 67 0
-60 67 0
-61 67 0
-62 67 0
68 0
69 -67 0
-69 67 0
-55 70 0
-56 70 0
-57 70 0
-58 70 0
-59 70 0
-60 70 0
-61 70 0
-62 70 0
71 0
72 -70 0
-72 70 0
-56 73 0
-57 73 0
-58 73 0
-59 73 0
-60 73 0
-61 73 0
-62 73 0
74 0
75 -73 0
-75 73 0
-57 76 0
-58 76 0
-59 76 0
-60 76 0
-61 76 0
-62 76 0
77 0
78 -76 0
-78 76 0
79 -76 0
-79 76 0
80 -76 0
-80 76 0
81 -76 0
-81 76 0
82 -76 0
-82 76 0
83 -76 0
-83 76 0
-84 85 0
-86 85 0
85 -87 0
-88 85 0
85 -89 0
85 -90 0
-91 85 0
-92 85 0
93 0
2 -85 0
-2 85 0
-86 94 0
-87 94 0
-88 94 0
-89 94 0
-90 94 0
-91 94 0
-92 94 0
95 0
96 -94 0
-96 94 0
-87 97 0
-88 97 0
-89 97 0
-90 97 0
-91 97 0
-92 97 0
98 0
99 -97 0
-99 97 0
-88 100 0
-89 100 0
-90 100 0
-91 100 0
-92 100 0
88 89 90 91 92 -100 0
101 -100 0
-101 100 0
102 -100 0
-102 100 0
103 -100 0
-103 100 0
104 -100 0
-104 100 0
105 -100 0
-105 100 0
106 -107 0
-108 106 0
106 -109 0
106 -110 0
106 -111 0
106 -112 0
-113 106 0
-114 106 0
-115 106 0
106 -116 0
-117 106 0
118 0
3 -106 0
-3 106 0
-108 119 0
-109 119 0
-110 119 0
-111 119 0
-112 119 0
-113 119 0
-114 119 0
-115 119 0
-116 119 0
-117 119 0
120 0
121 -119 0
-121 119 0
-109 122 0
-110 122 0
-111 122 0
-112 122 0
-113 122 0
-114 122 0
-115 122 0
-116 122 0
-117 122 0
123 0
124 -122 0
-124 122 0
-110 125 0
-111 125 0
-112 125 0
-113 125 0
-114 125 0
-115 125 0
-116 125 0
-117 125 0
126 0
127 -125 0
-127 125 0
-111 128 0
-112 128 0
-113 128 0
-114 128 0
-115 128 0
-116 128 0
-117 128 0
129 0
130 -128 0
-130 128 0
-112 131 0
-113 131 0
-114 131 0
-115 131 0
-116 131 0
-117 131 0
132 0
133 -131 0
-133 131 0
134 -131 0
-134 131 0
135 -131 0
-135 131 0
136 -131 0
-136 131 0
137 -131 0
-137 131 0
138 -131 0
-138 131 0
139 -140 0
139 -141 0
139 -142 0
-143 139 0
139 -144 0
139 -145 0
-146 139 0
-147 139 0
-148 139 0
139 -149 0
-150 139 0
151 0
4 -139 0
-4 139 0
-141 152 0
-142 152 0
-143 152 0
-144 152 0
-145 152 0
-146 152 0
-147 152 0
-148 152 0
-149 152 0
-150 152 0
153 0
154 -152 0
-154 152 0
-142 155 0
-143 155 0
-144 155 0
-145 155 0
-146 155 0
-147 155 0
-148 155 0
-149 155 0
-150 155 0
156 0
157 -155 0
-157 155 0
-143 158 0
-144 158 0
-145 158 0
-146 158 0
-147 158 0
-148 158 0
-149 158 0
-150 158 0
159 0
160 -158 0
-160 158 0
-144 161 0
-145 161 0
-146 161 0
-147 161 0
-148 161 0
-149 161 0
-150 161 0
162 0
163 -161 0
-163 161 0
-145 164 0
-146 164 0
-147 164 0
-148 164 0
-149 164 0
-150 164 0
165 0
166 -164 0
-166 164 0
167 -164 0
-167 164 0
168 -164 0
-168 164 0
169 -164 0
-169 164 0
170 -164 0
-170 164 0
171 -164 0
-171 164 0
172 -173 0
172 -174 0
-175 172 0
172 -176 0
-177 172 0
-178 172 0
172 -179 0
172 -180 0
-181 172 0
182 0
5 -172 0
-5 172 0
-174 183 0
-175 183 0
-176 183 0
-177 183 0
-178 183 0
-179 183 0
-180 183 0
-181 183 0
184 0
185 -183 0
-185 183 0
-175 186 0
-176 186 0
-177 186 0
-178 186 0
-179 186 0
-180 186 0
-181 186 0
187 0
188 -186 0
-188 186 0
-176 189 0
-177 189 0
-178 189 0
-179 189 0
-180 189 0
-181 189 0
190 0
191 -189 0
-191 189 0
-177 192 0
-178 192 0
-179 192 0
-180 192 0
-181 192 0
177 178 179 180 181 -192 0
193 -192 0
-193 192 0
194 -192 0
-194 192 0
195 -192 0
-195 192 0
196 -192 0
-196 192 0
197 -192 0
-197 192 0
-198 199 0
199 -200 0
199 -201 0
-202 199 0
198 200 201 202 -199 0
6 -199 0
-6 199 0
-200 203 0
-201 203 0
-202 203 0
200 201 202 -203 0
204 -203 0
-204 203 0
-201 205 0
-202 205 0
201 202 -205 0
206 -205 0
-206 205 0
207 -202 0
-207 202 0
208 -209 0
-210 208 0
208 -211 0
-212 208 0
-213 208 0
-214 208 0
-215 208 0
208 -216 0
208 -217 0
218 0
7 -208 0
-7 208 0
-210 219 0
-211 219 0
-212 219 0
-213 219 0
-214 219 0
-215 219 0
-216 219 0
-217 219 0
220 0
221 -219 0
-221 219 0
-211 222 0
-212 222 0
-213 222 0
-214 222 0
-215 222 0
-216 222 0
-217 222 0
223 0
224 -222 0
-224 222 0
-212 225 0
-213 225 0
-214 225 0
-215 225 0
-216 225 0
-217 225 0
226 0
227 -225 0
-227 225 0
-213 228 0
-214 228 0
-215 228 0
-216 228 0
-217 228 0
213 214 215 216 217 -228 0
229 -228 0
-229 228 0
230 -228 0
-230 228 0
231 -228 0
-231 228 0
232 -228 0
-232 228 0
233 -228 0
-233 228 0
-234 235 0
-236 235 0
-237 235 0
235 -238 0
-239 235 0
-240 235 0
235 -241 0
-242 235 0
235 -243 0
235 -244 0
245 0
8 -235 0
-8 235 0
-236 246 0
-237 246 0
-238 246 0
-239 246 0
-240 246 0
-241 246 0
-242 246 0
-243 246 0
-244 246 0
247 0
248 -246 0
-248 246 0
-237 249 0
-238 249 0
-239 249 0
-240 249 0
-241 249 0
-242 249 0
-243 249 0
-244 249 0
250 0
251 -249 0
-251 249 0
-238 252 0
-239 252 0
-240 252 0
-241 252 0
-242 252 0
-243 252 0
-244 252 0
253 0
254 -252 0
-254 252 0
-239 255 0
-240 255 0
-241 255 0
-242 255 0
-243 255 0
-244 255 0
256 0
257 -255 0
-257 255 0
-240 258 0
-241 258 0
-242 258 0
-243 258 0
-244 258 0
240 241 242 243 244 -258 0
259 -258 0
-259 258 0
-241 260 0
-242 260 0
-243 260 0
-244 260 0
241 242 243 244 -260 0
261 -260 0
-261 260 0
262 -260 0
-262 260 0
263 -260 0
-263 260 0
264 -260 0
-264 260 0
265 -266 0
265 -267 0
-268 265 0
-269 265 0
-270 265 0
265 -271 0
-272 265 0
-273 265 0
-274 265 0
265 -275 0
265 -276 0
277 0
9 -265 0
-9 265 0
-267 278 0
-268 278 0
-269 278 0
-270 278 0
-271 278 0
-272 278 0
-273 278 0
-274 278 0
-275 278 0
-276 278 0
279 0
280 -278 0
-280 278 0
-268 281 0
-269 281 0
-270 281 0
-271 281 0
-272 281 0
-273 281 0
-274 281 0
-275 281 0
-276 281 0
282 0
283 -281 0
-283 281 0
-269 284 0
-270 284 0
-271 284 0
-272 284 0
-273 284 0
-274 284 0
-275 284 0
-276 284 0
285 0
286 -284 0
-286 284 0
-270 287 0
-271 287 0
-272 287 0
-273 287 0
-274 287 0
-275 287 0
-276 287 0
288 0
289 -287 0
-289 287 0
-271 290 0
-272 290 0
-273 290 0
-274 290 0
-275 290 0
-276 290 0
291 0
292 -290 0
-292 290 0
293 -290 0
-293 290 0
294 -290 0
-294 290 0
295 -290 0
-295 290 0
296 -290 0
-296 290 0
297 -290 0
-297 290 0
298 -299 0
-300 298 0
-301 298 0
298 -302 0
298 -303 0
298 -304 0
298 -305 0
-306 298 0
307 0
10 -298 0
-10 298 0
-300 308 0
-301 308 0
-302 308 0
-303 308 0
-304 308 0
-305 308 0
-306 308 0
309 0
310 -308 0
-310 308 0
-301 311 0
-302 311 0
-303 311 0
-304 311 0
-305 311 0
-306 311 0
312 0
313 -311 0
-313 311 0
-302 314 0
-303 314 0
-304 314 0
-305 314 0
-306 314 0
302 303 304 305 306 -314 0
315 -314 0
-315 314 0
-303 316 0
-304 316 0
-305 316 0
-306 316 0
303 304 305 306 -316 0
317 -316 0
-317 316 0
318 -316 0
-318 316 0
319 -316 0
-319 316 0
320 -316 0
-320 316 0
-321 322 0
-323 322 0
322 -324 0
-325 322 0
322 -326 0
322 -327 0
328 0
11 -322 0
-11 322 0
-323 329 0
-324 329 0
-325 329 0
-326 329 0
-327 329 0
330 0
331 -329 0
-331 329 0
332 -329 0
-332 329 0
333 -329 0
-333 329 0
334 -329 0
-334 329 0
335 -329 0
-335 329 0
336 -337 0
336 -338 0
336 -339 0
-340 336 0
336 -341 0
-342 336 0
-343 336 0
344 0
12 -336 0
-12 336 0
-338 345 0
-339 345 0
-340 345 0
-341 345 0
-342 345 0
-343 345 0
346 0
347 -345 0
-347 345 0
348 -345 0
-348 345 0
349 -345 0
-349 345 0
350 -345 0
-350 345 0
351 -345 0
-351 345 0
352 -345 0
-352 345 0
353 -354 0
353 -355 0
353 -356 0
353 -357 0
-358 353 0
-359 353 0
-360 353 0
-361 353 0
353 -362 0
363 0
13 -353 0
-13 353 0
-355 364 0
-356 364 0
-357 364 0
-358 364 0
-359 364 0
-360 364 0
-361 364 0
-362 364 0
365 0
366 -364 0
-366 364 0
-356 367 0
-357 367 0
-358 367 0
-359 367 0
-360 367 0
-361 367 0
-362 367 0
368 0
369 -367 0
-369 367 0
-357 370 0
-358 370 0
-359 370 0
-360 370 0
-361 370 0
-362 370 0
371 0
372 -370 0
-372 370 0
-358 373 0
-359 373 0
-360 373 0
-361 373 0
-362 373 0
374 0
375 -373 0
-375 373 0
-359 376 0
-360 376 0
-361 376 0
-362 376 0
359 360 361 362 -376 0
377 -376 0
-377 376 0
378 -376 0
-378 376 0
379 -376 0
-379 376 0
380 -376 0
-380 376 0
381 -382 0
-383 381 0
-384 381 0
381 -385 0
-386 381 0
-387 381 0
381 -388 0
-389 381 0
381 -390 0
381 -391 0
392 0
14 -381 0
-14 381 0
-383 393 0
-384 393 0
-385 393 0
-386 393 0
-387 393 0
-388 393 0
-389 393 0
-390 393 0
-391 393 0
394 0
395 -393 0
-395 393 0
-384 396 0
-385 396 0
-386 396 0
-387 396 0
-388 396 0
-389 396 0
-390 396 0
-391 396 0
397 0
398 -396 0
-398 396 0
-385 399 0
-386 399 0
-387 399 0
-388 399 0
-389 399 0
-390 399 0
-391 399 0
400 0
401 -399 0
-401 399 0
-386 402 0
-387 402 0
-388 402 0
-389 402 0
-390 402 0
-391 402 0
403 0
404 -402 0
-404 402 0
-387 405 0
-388 405 0
-389 405 0
-390 405 0
-391 405 0
406 0
407 -405 0
-407 405 0
408 -405 0
-408 405 0
409 -405 0
-409 405 0
410 -405 0
-410 405 0
411 -405 0
-411 405 0
412 -413 0
412 -414 0
412 -415 0
-416 412 0
-417 412 0
-418 412 0
-419 412 0
412 -420 0
412 -421 0
-422 412 0
-423 412 0
412 -424 0
425 0
15 -412 0
-15 412 0
-414 426 0
-415 426 0
-416 426 0
-417 426 0
-418 426 0
-419 426 0
-420 426 0
-421 426 0
-422 426 0
-423 426 0
-424 426 0
427 0
428 -426 0
-428 426 0
-415 429 0
-416 429 0
-417 429 0
-418 429 0
-419 429 0
-420 429 0
-421 429 0
-422 429 0
-423 429 0
-424 429 0
430 0
431 -429 0
-431 429 0
-416 432 0
-417 432 0
-418 432 0
-419 432 0
-420 432 0
-421 432 0
-422 432 0
-423 432 0
-424 432 0
433 0
434 -432 0
-434 432 0
-417 435 0
-418 435 0
-419 435 0
-420 435 0
-421 435 0
-422 435 0
-423 435 0
-424 435 0
436 0
437 -435 0
-437 435 0
-418 438 0
-419 438 0
-420 438 0
-421 438 0
-422 438 0
-423 438 0
-424 438 0
439 0
440 -438 0
-440 438 0
-419 441 0
-420 441 0
-421 441 0
-422 441 0
-423 441 0
-424 441 0
442 0
443 -441 0
-443 441 0
444 -441 0
-444 441 0
445 -441 0
-445 441 0
446 -441 0
-446 441 0
447 -441 0
-447 441 0
448 -441 0
-448 441 0
-449 450 0
-451 450 0
-452 450 0
-453 450 0
450 -454 0
-455 450 0
-456 450 0
450 -457 0
458 0
16 -450 0
-16 450 0
-451 459 0
-452 459 0
-453 459 0
-454 459 0
-455 459 0
-456 459 0
-457 459 0
460 0
461 -459 0
-461 459 0
-452 462 0
-453 462 0
-454 462 0
-455 462 0
-456 462 0
-457 462 0
463 0
464 -462 0
-464 462 0
-453 465 0
-454 465 0
-455 465 0
-456 465 0
-457 465 0
466 0
467 -465 0
-467 465 0
-454 468 0
-455 468 0
-456 468 0
-457 468 0
454 455 456 457 -468 0
469 -468 0
-469 468 0
470 -468 0
-470 468 0
471 -468 0
-471 468 0
472 -468 0
-472 468 0
-473 474 0
-475 474 0
474 -476 0
474 -477 0
474 -478 0
474 -479 0
474 -480 0
474 -481 0
-482 474 0
483 0
17 -474 0
-17 474 0
-475 484 0
-476 484 0
-477 484 0
-478 484 0
-479 484 0
-480 484 0
-481 484 0
-482 484 0
485 0
486 -484 0
-486 484 0
-476 487 0
-477 487 0
-478 487 0
-479 487 0
-480 487 0
-481 487 0
-482 487 0
488 0
489 -487 0
-489 487 0
-477 490 0
-478 490 0
-479 490 0
-480 490 0
-481 490 0
-482 490 0
491 0
492 -490 0
-492 490 0
493 -490 0
-493 490 0
494 -490 0
-494 490 0
495 -490 0
-495 490 0
496 -490 0
-496 490 0
497 -490 0
-497 490 0
-498 499 0
499 -500 0
499 -501 0
-502 499 0
-503 499 0
-504 499 0
-505 499 0
-506 499 0
499 -507 0
-508 499 0
499 -509 0
510 0
18 -499 0
-18 499 0
-500 511 0
-501 511 0
-502 511 0
-503 511 0
-504 511 0
-505 511 0
-506 511 0
-507 511 0
-508 511 0
-509 511 0
512 0
513 -511 0
-513 511 0
-501 514 0
-502 514 0
-503 514 0
-504 514 0
-505 514 0
-506 514 0
-507 514 0
-508 514 0
-509 514 0
515 0
516 -514 0
-516 514 0
-502 517 0
-503 517 0
-504 517 0
-505 517 0
-506 517 0
-507 517 0
-508 517 0
-509 517 0
518 0
519 -517 0
-519 517 0
-503 520 0
-504 520 0
-505 520 0
-506 520 0
-507 520 0
-508 520 0
-509 520 0
521 0
522 -520 0
-522 520 0
-504 523 0
-505 523 0
-506 523 0
-507 523 0
-508 523 0
-509 523 0
524 0
525 -523 0
-525 523 0
526 -523 0
-526 523 0
527 -523 0
-527 523 0
528 -523 0
-528 523 0
529 -523 0
-529 523 0
530 -523 0
-530 523 0
-531 532 0
-533 532 0
-534 532 0
-535 532 0
532 -536 0
-537 532 0
-538 532 0
-539 532 0
532 -540 0
532 -541 0
542 0
19 -532 0
-19 532 0
-533 543 0
-534 543 0
-535 543 0
-536 543 0
-537 543 0
-538 543 0
-539 543 0
-540 543 0
-541 543 0
544 0
545 -543 0
-545 543 0
-534 546 0
-535 546 0
-536 546 0
-537 546 0
-538 546 0
-539 546 0
-540 546 0
-541 546 0
547 0
548 -546 0
-548 546 0
-535 549 0
-536 549 0
-537 549 0
-538 549 0
-539 549 0
-540 549 0
-541 549 0
550 0
551 -549 0
-551 549 0
-536 552 0
-537 552 0
-538 552 0
-539 552 0
-540 552 0
-541 552 0
553 0
554 -552 0
-554 552 0
-537 555 0
-538 555 0
-539 555 0
-540 555 0
-541 555 0
556 0
557 -555 0
-557 555 0
-538 558 0
-539 558 0
-540 558 0
-541 558 0
538 539 540 541 -558 0
559 -558 0
-559 558 0
560 -558 0
-560 558 0
561 -558 0
-561 558 0
562 -558 0
-562 558 0
563 -564 0
563 -565 0
563 -566 0
-567 563 0
-568 563 0
563 -569 0
-570 563 0
-571 563 0
563 -572 0
573 0
20 -563 0
-20 563 0
-565 574 0
-566 574 0
-567 574 0
-568 574 0
-569 574 0
-570 574 0
-571 574 0
-572 574 0
575 0
576 -574 0
-576 574 0
-566 577 0
-567 577 0
-568 577 0
-569 577 0
-570 577 0
-571 577 0
-572 577 0
578 0
579 -577 0
-579 577 0
-567 580 0
-568 580 0
-569 580 0
-570 580 0
-571 580 0
-572 580 0
581 0
582 -580 0
-582 580 0
-568 583 0
-569 583 0
-570 583 0
-571 583 0
-572 583 0
584 0
585 -583 0
-585 583 0
586 -583 0
-586 583 0
587 -583 0
-587 583 0
588 -583 0
-588 583 0
589 -583 0
-589 583 0
-590 591 0
591 -592 0
-593 591 0
-594 591 0
590 592 593 594 -591 0
21 -591 0
-21 591 0
595 -591 0
-595 591 0
596 -591 0
-596 591 0
597 -591 0
-597 591 0
598 -599 0
-600 598 0
598 -601 0
598 -602 0
-603 598 0
-604 598 0
-605 598 0
598 -606 0
598 -607 0
608 0
22 -598 0
-22 598 0
-600 609 0
-601 609 0
-602 609 0
-603 609 0
-604 609 0
-605 609 0
-606 609 0
-607 609 0
610 0
611 -609 0
-611 609 0
-601 612 0
-602 612 0
-603 612 0
-604 612 0
-605 612 0
-606 612 0
-607 612 0
613 0
614 -612 0
-614 612 0
-602 615 0
-603 615 0
-604 615 0
-605 615 0
-606 615 0
-607 615 0
616 0
617 -615 0
-617 615 0
-603 618 0
-604 618 0
-605 618 0
-606 618 0
-607 618 0
619 0
620 -618 0
-620 618 0
-604 621 0
-605 621 0
-606 621 0
-607 621 0
604 605 606 607 -621 0
622 -621 0
-622 621 0
623 -621 0
-623 621 0
624 -621 0
-624 621 0
625 -621 0
-625 621 0
-626 627 0
-628 627 0
627 -629 0
-630 627 0
627 -631 0
627 -632 0
-633 627 0
-634 627 0
-635 627 0
627 -636 0
627 -637 0
-638 627 0
639 0
23 -627 0
-23 627 0
-628 640 0
-629 640 0
-630 640 0
-631 640 0
-632 640 0
-633 640 0
-634 640 0
-635 640 0
-636 640 0
-637 640 0
-638 640 0
641 0
642 -640 0
-642 640 0
-629 643 0
-630 643 0
-631 643 0
-632 643 0
-633 643 0
-634 643 0
-635 643 0
-636 643 0
-637 643 0
-638 643 0
644 0
645 -643 0
-645 643 0
-630 646 0
-631 646 0
-632 646 0
-633 646 0
-634 646 0
-635 646 0
-636 646 0
-637 646 0
-638 646 0
647 0
648 -646 0
-648 646 0
-631 649 0
-632 649 0
-633 649 0
-634 649 0
-635 649 0
-636 649 0
-637 649 0
-638 649 0
650 0
651 -649 0
-651 649 0
-632 652 0
-633 652 0
-634 652 0
-635 652 0
-636 652 0
-637 652 0
-638 652 0
653 0
654 -652 0
-654 652 0
-633 655 0
-634 655 0
-635 655 0
-636 655 0
-637 655 0
-638 655 0
656 0
657 -655 0
-657 655 0
658 -655 0
-658 655 0
659 -655 0
-659 655 0
660 -655 0
-660 655 0
661 -655 0
-661 655 0
662 -655 0
-662 655 0
663 -664 0
663 -665 0
663 -666 0
663 -667 0
663 -668 0
-669 663 0
663 -670 0
-671 663 0
672 0
24 -663 0
-24 663 0
-665 673 0
-666 673 0
-667 673 0
-668 673 0
-669 673 0
-670 673 0
-671 673 0
674 0
675 -673 0
-675 673 0
-666 676 0
-667 676 0
-668 676 0
-669 676 0
-670 676 0
-671 676 0
677 0
678 -676 0
-678 676 0
-667 679 0
-668 679 0
-669 679 0
-670 679 0
-671 679 0
680 0
681 -679 0
-681 679 0
682 -679 0
-682 679 0
683 -679 0
-683 679 0
684 -679 0
-684 679 0
685 -679 0
-685 679 0
686 -687 0
-688 686 0
686 -689 0
-690 686 0
-691 686 0
686 -692 0
693 0
25 -686 0
-25 686 0
-688 694 0
-689 694 0
-690 694 0
-691 694 0
-692 694 0
695 0
696 -694 0
-696 694 0
-689 697 0
-690 697 0
-691 697 0
-692 697 0
689 690 691 692 -697 0
698 -697 0
-698 697 0
699 -697 0
-699 697 0
700 -697 0
-700 697 0
701 -697 0
-701 697 0
26 -702 0
-26 702 0
27 -703 0
-27 703 0
28 -704 0
-28 704 0
29 -705 0
-29 705 0
30 -706 0
-30 706 0
31 -707 0
-31 707 0
32 -708 0
-32 708 0
33 -709 0
-33 709 0
34 -710 0
-34 710 0
35 -711 0
-35 711 0
36 -712 0
-36 712 0
37 -713 0
-37 713 0
38 -714 0
-38 714 0
39 -715 0
-39 715 0
40 -716 0
-40 716 0
41 -717 0
-41 717 0
42 -718 0
-42 718 0
43 -719 0
-43 719 0
44 -720 0
-44 720 0
45 -721 0
-45 721 0
46 -722 0
-46 722 0
47 -723 0
-47 723 0
48 -724 0
-48 724 0
49 -725 0
-49 725 0
50 -726 0
-50 726 0
52 -727 0
-727 -53 0
-727 -54 0
-727 -55 0
56 -727 0
57 -727 0
58 -727 0
59 -727 0
60 -727 0
-727 -61 0
-727 -62 0
-727 -84 0
-727 -86 0
87 -727 0
-727 -88 0
89 -727 0
90 -727 0
-727 -91 0
-727 -92 0
107 -727 0
-727 -108 0
109 -727 0
110 -727 0
111 -727 0
112 -727 0
-727 -113 0
-727 -114 0
-727 -115 0
116 -727 0
-727 -117 0
140 -727 0
141 -727 0
142 -727 0
-727 -143 0
144 -727 0
145 -727 0
-727 -146 0
-727 -147 0
-727 -148 0
149 -727 0
-727 -150 0
173 -727 0
174 -727 0
-727 -175 0
176 -727 0
-727 -177 0
-727 -178 0
179 -727 0
180 -727 0
-727 -181 0
-727 -198 0
200 -727 0
201 -727 0
-727 -202 0
209 -727 0
-727 -210 0
211 -727 0
-727 -212 0
-727 -213 0
-727 -214 0
-727 -215 0
216 -727 0
217 -727 0
-727 -234 0
-727 -236 0
-727 -237 0
238 -727 0
-727 -239 0
-727 -240 0
241 -727 0
-727 -242 0
243 -727 0
244 -727 0
266 -727 0
267 -727 0
-727 -268 0
-727 -269 0
-727 -270 0
271 -727 0
-727 -272 0
-727 -273 0
-727 -274 0
275 -727 0
276 -727 0
299 -727 0
-727 -300 0
-727 -301 0
302 -727 0
303 -727 0
304 -727 0
305 -727 0
-727 -306 0
-727 -321 0
-727 -323 0
324 -727 0
-727 -325 0
326 -727 0
327 -727 0
337 -727 0
338 -727 0
339 -727 0
-727 -340 0
341 -727 0
-727 -342 0
-727 -343 0
354 -727 0
355 -727 0
356 -727 0
357 -727 0
-727 -358 0
-727 -359 0
-727 -360 0
-727 -361 0
362 -727 0
382 -727 0
-727 -383 0
-727 -384 0
385 -727 0
-727 -386 0
-727 -387 0
388 -727 0
-727 -389 0
390 -727 0
391 -727 0
413 -727 0
414 -727 0
415 -727 0
-727 -416 0
-727 -417 0
-727 -418 0
-727 -419 0
420 -727 0
421 -727 0
-727 -422 0
-727 -423 0
424 -727 0
-727 -449 0
-727 -451 0
-727 -452 0
-727 -453 0
454 -727 0
-727 -455 0
-727 -456 0
457 -727 0
-727 -473 0
-727 -475 0
476 -727 0
477 -727 0
478 -727 0
479 -727 0
480 -727 0
481 -727 0
-727 -482 0
-727 -498 0
500 -727 0
501 -727 0
-727 -502 0
-727 -503 0
-727 -504 0
-727 -505 0
-727 -506 0
507 -727 0
-727 -508 0
509 -727 0
-727 -531 0
-727 -533 0
-727 -534 0
-727 -535 0
536 -727 0
-727 -537 0
-727 -538 0
-727 -539 0
540 -727 0
541 -727 0
564 -727 0
565 -727 0
566 -727 0
-727 -567 0
-727 -568 0
569 -727 0
-727 -570 0
-727 -571 0
572 -727 0
-727 -590 0
592 -727 0
-727 -593 0
-727 -594 0
599 -727 0
-727 -600 0
601 -727 0
602 -727 0
-727 -603 0
-727 -604 0
-727 -605 0
606 -727 0
607 -727 0
-727 -626 0
-727 -628 0
629 -727 0
-727 -630 0
631 -727 0
632 -727 0
-727 -633 0
-727 -634 0
-727 -635 0
636 -727 0
637 -727 0
-727 -638 0
664 -727 0
665 -727 0
666 -727 0
667 -727 0
668 -727 0
-727 -669 0
670 -727 0
-727 -671 0
687 -727 0
-727 -688 0
689 -727 0
-727 -690 0
-727 -691 0
692 -727 0
-727 -702 0
-727 -703 0
-727 -704 0
-727 -705 0
-727 -706 0
-727 -707 0
-727 -708 0
-727 -709 0
-727 -710 0
-727 -711 0
-727 -712 0
-727 -713 0
-727 -714 0
-727 -715 0
-727 -716 0
-727 -717 0
-727 -718 0
-727 -719 0
-727 -720 0
-727 -721 0
-727 -722 0
-727 -723 0
-727 -724 0
-727 -725 0
-727 -726 0
727 0
-728 0
-729 0
-730 0
-731 0
-732 0
-733 0
-734 0
-735 0
